TCS_Benchmarks/redos_fix/regexlib1_output_distinct_1610_1609_0_0.smt2
(set-logic QF_S)
(declare-const x String)
(assert (str.in.re x (re.inter  (re.++ (re.+  (re.union  (re.++  (str.to.re "\u{30}") (re.++  (str.to.re "\u{32}") (re.++  (str.to.re "\u{2d}")  (re.union  (re.++  (str.to.re "\u{30}") (re.range "\u{31}" "\u{39}")) (re.union  (re.++  (str.to.re "\u{31}") (re.range "\u{30}" "\u{39}"))  (re.++  (str.to.re "\u{32}") (re.range "\u{30}" "\u{38}")))))))  (re.++  (re.union  (re.++  (str.to.re "\u{30}") (re.++  (re.union  (str.to.re "\u{31}") (re.union  (str.to.re "\u{33}") (re.union  (str.to.re "\u{35}") (re.union  (str.to.re "\u{37}")  (str.to.re "\u{38}")))))  (str.to.re "\u{2d}")))  (re.++  (str.to.re "\u{31}") (re.++  (re.union  (str.to.re "\u{30}")  (str.to.re "\u{32}"))  (str.to.re "\u{2d}"))))  (re.union  (re.++  (str.to.re "\u{30}") (re.range "\u{31}" "\u{39}")) (re.union  (re.++  (re.union  (str.to.re "\u{31}")  (str.to.re "\u{32}")) (re.range "\u{30}" "\u{39}"))  (re.++  (str.to.re "\u{33}")  (re.union  (str.to.re "\u{30}")  (str.to.re "\u{31}"))))))) ) (re.+  (re.union  (re.++  (str.to.re "\u{30}") (re.++  (str.to.re "\u{32}") (re.++  (str.to.re "\u{2d}")  (re.union  (re.++  (str.to.re "\u{30}") (re.range "\u{31}" "\u{39}")) (re.union  (re.++  (str.to.re "\u{31}") (re.range "\u{30}" "\u{39}"))  (re.++  (str.to.re "\u{32}") (re.range "\u{30}" "\u{38}")))))))  (re.++  (re.union  (re.++  (str.to.re "\u{30}") (re.++  (re.union  (str.to.re "\u{31}") (re.union  (str.to.re "\u{33}") (re.union  (str.to.re "\u{34}") (re.union  (str.to.re "\u{35}") (re.union  (str.to.re "\u{36}") (re.union  (str.to.re "\u{37}") (re.union  (str.to.re "\u{38}")  (str.to.re "\u{39}"))))))))  (str.to.re "\u{2d}")))  (re.++  (str.to.re "\u{31}") (re.++  (re.union  (str.to.re "\u{30}") (re.union  (str.to.re "\u{31}")  (str.to.re "\u{32}")))  (str.to.re "\u{2d}"))))  (re.union  (re.++  (str.to.re "\u{30}") (re.range "\u{31}" "\u{39}")) (re.union  (re.++  (re.union  (str.to.re "\u{31}")  (str.to.re "\u{32}")) (re.range "\u{30}" "\u{39}"))  (re.++  (str.to.re "\u{33}")  (str.to.re "\u{30}")))))) )) (re.+  (re.union  (re.++  (str.to.re "\u{30}") (re.++  (str.to.re "\u{32}") (re.++  (str.to.re "\u{2d}")  (re.union  (re.++  (str.to.re "\u{30}") (re.range "\u{31}" "\u{39}")) (re.union  (re.++  (str.to.re "\u{31}") (re.range "\u{30}" "\u{39}"))  (re.++  (str.to.re "\u{32}") (re.range "\u{30}" "\u{38}")))))))  (re.++  (re.union  (re.++  (str.to.re "\u{30}") (re.++  (re.union  (str.to.re "\u{31}") (re.union  (str.to.re "\u{33}") (re.union  (str.to.re "\u{34}") (re.union  (str.to.re "\u{35}") (re.union  (str.to.re "\u{36}") (re.union  (str.to.re "\u{37}") (re.union  (str.to.re "\u{38}")  (str.to.re "\u{39}"))))))))  (str.to.re "\u{2d}")))  (re.++  (str.to.re "\u{31}") (re.++  (re.union  (str.to.re "\u{30}") (re.union  (str.to.re "\u{31}")  (str.to.re "\u{32}")))  (str.to.re "\u{2d}"))))  (re.union  (re.++  (str.to.re "\u{30}") (re.range "\u{31}" "\u{39}")) (re.union  (re.++  (re.union  (str.to.re "\u{31}")  (str.to.re "\u{32}")) (re.range "\u{30}" "\u{39}"))  (re.++  (str.to.re "\u{33}")  (str.to.re "\u{30}")))))) )  (re.++  (str.to.re "\u{30}") (re.* (re.union (re.range "\u{00}" "\u{09}") (re.range "\u{0b}" "\u{0c}") (re.range "\u{0e}" "\u{84}") (re.range "\u{86}" "\u{ff}")) )) )))
(check-sat)
(get-model)