TCS_Benchmarks/redos_fix/regexlib1_output_distinct_1610_1609_0_0.txt
(02-(0[1-9]|1\d|2[0-8])|(0[13578]-|1[02]-)(0[1-9]|[12]\d|3[01]))+(02-(0[1-9]|1\d|2[0-8])|(0[13456789]-|1[012]-)(0[1-9]|[12]\d|30))+
(02-(0[1-9]|1\d|2[0-8])|(0[13456789]-|1[012]-)(0[1-9]|[12]\d|30))+
0.*